5729
5603
5744
5645
5677
5695
5689
5612
5735
5672
5788
5787
5643
5798
5682
5686
5801
5667
5690
5672
5633
5643
5692
5711
5746
5701
5700
5494
5742
5644
5733
5652
5677
5727
5737
5733
5726
5682
5735
5629
5645
5716
5733
5711
5694
5735
5580
5721
5654
5753
5761
5670
5656
5782
5571
5713
5751
5757
5712
5695
5754
5694
5757
5675
5696
5735
5705
5755
5778
5770
5796
5591
5766
5657
5683
5627
5639
5672
5723
5766
5670
5648
5751
5633
5712
5745
5663
5733
5734
5755
5700
5703
5776
5675
5676
5666
5826
5661
5690
5765
